* ENCODING=ISO-8859-1
NAME          
ROWS
 N  obj     
 L  Phi     
 L  Lambda  
 L  V2      
 L  V3      
 L  V4      
 L  V5      
 L  V7      
 L  V8      
 L  V9      
 L  V10     
 L  V11     
 L  V13     
 L  V14     
 L  V15     
 L  V16     
 L  V17     
 L  V18     
 L  V19     
 L  V20     
 L  V21     
 L  V22     
 L  V23     
 L  V24     
 L  V25     
 L  V26     
 L  V27     
 L  V28     
 L  V29     
 L  V30     
 L  V31     
 L  V32     
 L  V33     
 L  V34     
 L  V35     
 L  V36     
 L  V37     
 L  V38     
 L  V39     
 L  V40     
 L  V41     
 L  V42     
 L  V43     
 L  V44     
 L  V45     
 L  V46     
 L  V47     
 L  V48     
 L  V49     
 L  V50     
 L  A7-3    
 L  A3-7    
 L  A9-2    
 L  A2-9    
 L  A11-10  
 L  A10-11  
 L  A15-14  
 L  A14-15  
 L  A16-14  
 L  A14-16  
 L  A18-13  
 L  A13-18  
 L  A20-11  
 L  A11-20  
 L  A22-3   
 L  A3-22   
 L  A23-16  
 L  A16-23  
 L  A24-22  
 L  A22-24  
 L  A25-4   
 L  A4-25   
 L  A27-14  
 L  A14-27  
 L  A28-9   
 L  A9-28   
 L  A29-2   
 L  A2-29   
 L  A30-21  
 L  A21-30  
 L  A31-9   
 L  A9-31   
 L  A32-4   
 L  A4-32   
 L  A33-30  
 L  A30-33  
 L  A34-20  
 L  A20-34  
 L  A35-30  
 L  A30-35  
 L  A36-24  
 L  A24-36  
 L  A37-36  
 L  A36-37  
 L  A38-14  
 L  A14-38  
 L  A39-37  
 L  A37-39  
 L  A40-18  
 L  A18-40  
 L  A41-39  
 L  A39-41  
 L  A42-30  
 L  A30-42  
 L  A43-26  
 L  A26-43  
 L  A44-29  
 L  A29-44  
 L  A45-13  
 L  A13-45  
 L  A46-27  
 L  A27-46  
 L  A47-41  
 L  A41-47  
 L  A48-2   
 L  A2-48   
 L  A49-7   
 L  A7-49   
 L  A50-7   
 L  A7-50   
COLUMNS
    MARK0000  'MARKER'                 'INTORG'
    a_2       obj                             1
    a_2       V2                              1
    a_2       A9-2                            1
    a_2       A2-9                           -1
    a_2       A29-2                           1
    a_2       A2-29                          -1
    a_2       A48-2                           1
    a_2       A2-48                          -1
    a_3       obj                             1
    a_3       V3                              1
    a_3       A7-3                            1
    a_3       A3-7                           -1
    a_3       A22-3                           1
    a_3       A3-22                          -1
    a_4       obj                             1
    a_4       V4                              1
    a_4       A25-4                           1
    a_4       A4-25                          -1
    a_4       A32-4                           1
    a_4       A4-32                          -1
    a_5       obj                             1
    a_5       V5                              1
    a_7       obj                             1
    a_7       V7                              1
    a_7       A7-3                           -1
    a_7       A3-7                            1
    a_7       A49-7                           1
    a_7       A7-49                          -1
    a_7       A50-7                           1
    a_7       A7-50                          -1
    a_8       obj                             1
    a_8       V8                              1
    a_9       obj                             1
    a_9       V9                              1
    a_9       A9-2                           -1
    a_9       A2-9                            1
    a_9       A28-9                           1
    a_9       A9-28                          -1
    a_9       A31-9                           1
    a_9       A9-31                          -1
    a_10      obj                             1
    a_10      V10                             1
    a_10      A11-10                          1
    a_10      A10-11                         -1
    a_11      obj                             1
    a_11      V11                             1
    a_11      A11-10                         -1
    a_11      A10-11                          1
    a_11      A20-11                          1
    a_11      A11-20                         -1
    a_13      obj                             1
    a_13      V13                             1
    a_13      A18-13                          1
    a_13      A13-18                         -1
    a_13      A45-13                          1
    a_13      A13-45                         -1
    a_14      obj                             1
    a_14      V14                             1
    a_14      A15-14                          1
    a_14      A14-15                         -1
    a_14      A16-14                          1
    a_14      A14-16                         -1
    a_14      A27-14                          1
    a_14      A14-27                         -1
    a_14      A38-14                          1
    a_14      A14-38                         -1
    a_15      obj                             1
    a_15      V15                             1
    a_15      A15-14                         -1
    a_15      A14-15                          1
    a_16      obj                             1
    a_16      V16                             1
    a_16      A16-14                         -1
    a_16      A14-16                          1
    a_16      A23-16                          1
    a_16      A16-23                         -1
    a_17      obj                             1
    a_17      V17                             1
    a_18      obj                             1
    a_18      V18                             1
    a_18      A18-13                         -1
    a_18      A13-18                          1
    a_18      A40-18                          1
    a_18      A18-40                         -1
    a_19      obj                             1
    a_19      V19                             1
    a_20      obj                             1
    a_20      V20                             1
    a_20      A20-11                         -1
    a_20      A11-20                          1
    a_20      A34-20                          1
    a_20      A20-34                         -1
    a_21      obj                             1
    a_21      V21                             1
    a_21      A30-21                          1
    a_21      A21-30                         -1
    a_22      obj                             1
    a_22      V22                             1
    a_22      A22-3                          -1
    a_22      A3-22                           1
    a_22      A24-22                          1
    a_22      A22-24                         -1
    a_23      obj                             1
    a_23      V23                             1
    a_23      A23-16                         -1
    a_23      A16-23                          1
    a_24      obj                             1
    a_24      V24                             1
    a_24      A24-22                         -1
    a_24      A22-24                          1
    a_24      A36-24                          1
    a_24      A24-36                         -1
    a_25      obj                             1
    a_25      V25                             1
    a_25      A25-4                          -1
    a_25      A4-25                           1
    a_26      obj                             1
    a_26      V26                             1
    a_26      A43-26                          1
    a_26      A26-43                         -1
    a_27      obj                             1
    a_27      V27                             1
    a_27      A27-14                         -1
    a_27      A14-27                          1
    a_27      A46-27                          1
    a_27      A27-46                         -1
    a_28      obj                             1
    a_28      V28                             1
    a_28      A28-9                          -1
    a_28      A9-28                           1
    a_29      obj                             1
    a_29      V29                             1
    a_29      A29-2                          -1
    a_29      A2-29                           1
    a_29      A44-29                          1
    a_29      A29-44                         -1
    a_30      obj                             1
    a_30      V30                             1
    a_30      A30-21                         -1
    a_30      A21-30                          1
    a_30      A33-30                          1
    a_30      A30-33                         -1
    a_30      A35-30                          1
    a_30      A30-35                         -1
    a_30      A42-30                          1
    a_30      A30-42                         -1
    a_31      obj                             1
    a_31      V31                             1
    a_31      A31-9                          -1
    a_31      A9-31                           1
    a_32      obj                             1
    a_32      V32                             1
    a_32      A32-4                          -1
    a_32      A4-32                           1
    a_33      obj                             1
    a_33      V33                             1
    a_33      A33-30                         -1
    a_33      A30-33                          1
    a_34      obj                             1
    a_34      V34                             1
    a_34      A34-20                         -1
    a_34      A20-34                          1
    a_35      obj                             1
    a_35      V35                             1
    a_35      A35-30                         -1
    a_35      A30-35                          1
    a_36      obj                             1
    a_36      V36                             1
    a_36      A36-24                         -1
    a_36      A24-36                          1
    a_36      A37-36                          1
    a_36      A36-37                         -1
    a_37      obj                             1
    a_37      V37                             1
    a_37      A37-36                         -1
    a_37      A36-37                          1
    a_37      A39-37                          1
    a_37      A37-39                         -1
    a_38      obj                             1
    a_38      V38                             1
    a_38      A38-14                         -1
    a_38      A14-38                          1
    a_39      obj                             1
    a_39      V39                             1
    a_39      A39-37                         -1
    a_39      A37-39                          1
    a_39      A41-39                          1
    a_39      A39-41                         -1
    a_40      obj                             1
    a_40      V40                             1
    a_40      A40-18                         -1
    a_40      A18-40                          1
    a_41      obj                             1
    a_41      V41                             1
    a_41      A41-39                         -1
    a_41      A39-41                          1
    a_41      A47-41                          1
    a_41      A41-47                         -1
    a_42      obj                             1
    a_42      V42                             1
    a_42      A42-30                         -1
    a_42      A30-42                          1
    a_43      obj                             1
    a_43      V43                             1
    a_43      A43-26                         -1
    a_43      A26-43                          1
    a_44      obj                             1
    a_44      V44                             1
    a_44      A44-29                         -1
    a_44      A29-44                          1
    a_45      obj                             1
    a_45      V45                             1
    a_45      A45-13                         -1
    a_45      A13-45                          1
    a_46      obj                             1
    a_46      V46                             1
    a_46      A46-27                         -1
    a_46      A27-46                          1
    a_47      obj                             1
    a_47      V47                             1
    a_47      A47-41                         -1
    a_47      A41-47                          1
    a_48      obj                             1
    a_48      V48                             1
    a_48      A48-2                          -1
    a_48      A2-48                           1
    a_49      obj                             1
    a_49      V49                             1
    a_49      A49-7                          -1
    a_49      A7-49                           1
    a_50      obj                             1
    a_50      V50                             1
    a_50      A50-7                          -1
    a_50      A7-50                           1
    y_2       Phi                             1
    y_2       V2                              1
    y_3       Phi                             1
    y_3       V3                              1
    y_4       Phi                             1
    y_4       V4                              1
    y_5       Phi                             1
    y_5       V5                              1
    y_7       Phi                             1
    y_7       V7                              1
    y_8       Phi                             1
    y_8       V8                              1
    y_9       Phi                             1
    y_9       V9                              1
    y_10      Phi                             1
    y_10      V10                             1
    y_11      Phi                             1
    y_11      V11                             1
    y_13      Phi                             1
    y_13      V13                             1
    y_14      Phi                             1
    y_14      V14                             1
    y_15      Phi                             1
    y_15      V15                             1
    y_16      Phi                             1
    y_16      V16                             1
    y_17      Phi                             1
    y_17      V17                             1
    y_18      Phi                             1
    y_18      V18                             1
    y_19      Phi                             1
    y_19      V19                             1
    y_20      Phi                             1
    y_20      V20                             1
    y_21      Phi                             1
    y_21      V21                             1
    y_22      Phi                             1
    y_22      V22                             1
    y_23      Phi                             1
    y_23      V23                             1
    y_24      Phi                             1
    y_24      V24                             1
    y_25      Phi                             1
    y_25      V25                             1
    y_26      Phi                             1
    y_26      V26                             1
    y_27      Phi                             1
    y_27      V27                             1
    y_28      Phi                             1
    y_28      V28                             1
    y_29      Phi                             1
    y_29      V29                             1
    y_30      Phi                             1
    y_30      V30                             1
    y_31      Phi                             1
    y_31      V31                             1
    y_32      Phi                             1
    y_32      V32                             1
    y_33      Phi                             1
    y_33      V33                             1
    y_34      Phi                             1
    y_34      V34                             1
    y_35      Phi                             1
    y_35      V35                             1
    y_36      Phi                             1
    y_36      V36                             1
    y_37      Phi                             1
    y_37      V37                             1
    y_38      Phi                             1
    y_38      V38                             1
    y_39      Phi                             1
    y_39      V39                             1
    y_40      Phi                             1
    y_40      V40                             1
    y_41      Phi                             1
    y_41      V41                             1
    y_42      Phi                             1
    y_42      V42                             1
    y_43      Phi                             1
    y_43      V43                             1
    y_44      Phi                             1
    y_44      V44                             1
    y_45      Phi                             1
    y_45      V45                             1
    y_46      Phi                             1
    y_46      V46                             1
    y_47      Phi                             1
    y_47      V47                             1
    y_48      Phi                             1
    y_48      V48                             1
    y_49      Phi                             1
    y_49      V49                             1
    y_50      Phi                             1
    y_50      V50                             1
    x_2       Lambda                          1
    x_2       A9-2                           -1
    x_2       A29-2                          -1
    x_2       A48-2                          -1
    x_3       Lambda                          1
    x_3       A7-3                           -1
    x_3       A22-3                          -1
    x_4       Lambda                          1
    x_4       A25-4                          -1
    x_4       A32-4                          -1
    x_5       Lambda                          1
    x_7       Lambda                          1
    x_7       A3-7                           -1
    x_7       A49-7                          -1
    x_7       A50-7                          -1
    x_8       Lambda                          1
    x_9       Lambda                          1
    x_9       A2-9                           -1
    x_9       A28-9                          -1
    x_9       A31-9                          -1
    x_10      Lambda                          1
    x_10      A11-10                         -1
    x_11      Lambda                          1
    x_11      A10-11                         -1
    x_11      A20-11                         -1
    x_13      Lambda                          1
    x_13      A18-13                         -1
    x_13      A45-13                         -1
    x_14      Lambda                          1
    x_14      A15-14                         -1
    x_14      A16-14                         -1
    x_14      A27-14                         -1
    x_14      A38-14                         -1
    x_15      Lambda                          1
    x_15      A14-15                         -1
    x_16      Lambda                          1
    x_16      A14-16                         -1
    x_16      A23-16                         -1
    x_17      Lambda                          1
    x_18      Lambda                          1
    x_18      A13-18                         -1
    x_18      A40-18                         -1
    x_19      Lambda                          1
    x_20      Lambda                          1
    x_20      A11-20                         -1
    x_20      A34-20                         -1
    x_21      Lambda                          1
    x_21      A30-21                         -1
    x_22      Lambda                          1
    x_22      A3-22                          -1
    x_22      A24-22                         -1
    x_23      Lambda                          1
    x_23      A16-23                         -1
    x_24      Lambda                          1
    x_24      A22-24                         -1
    x_24      A36-24                         -1
    x_25      Lambda                          1
    x_25      A4-25                          -1
    x_26      Lambda                          1
    x_26      A43-26                         -1
    x_27      Lambda                          1
    x_27      A14-27                         -1
    x_27      A46-27                         -1
    x_28      Lambda                          1
    x_28      A9-28                          -1
    x_29      Lambda                          1
    x_29      A2-29                          -1
    x_29      A44-29                         -1
    x_30      Lambda                          1
    x_30      A21-30                         -1
    x_30      A33-30                         -1
    x_30      A35-30                         -1
    x_30      A42-30                         -1
    x_31      Lambda                          1
    x_31      A9-31                          -1
    x_32      Lambda                          1
    x_32      A4-32                          -1
    x_33      Lambda                          1
    x_33      A30-33                         -1
    x_34      Lambda                          1
    x_34      A20-34                         -1
    x_35      Lambda                          1
    x_35      A30-35                         -1
    x_36      Lambda                          1
    x_36      A24-36                         -1
    x_36      A37-36                         -1
    x_37      Lambda                          1
    x_37      A36-37                         -1
    x_37      A39-37                         -1
    x_38      Lambda                          1
    x_38      A14-38                         -1
    x_39      Lambda                          1
    x_39      A37-39                         -1
    x_39      A41-39                         -1
    x_40      Lambda                          1
    x_40      A18-40                         -1
    x_41      Lambda                          1
    x_41      A39-41                         -1
    x_41      A47-41                         -1
    x_42      Lambda                          1
    x_42      A30-42                         -1
    x_43      Lambda                          1
    x_43      A26-43                         -1
    x_44      Lambda                          1
    x_44      A29-44                         -1
    x_45      Lambda                          1
    x_45      A13-45                         -1
    x_46      Lambda                          1
    x_46      A27-46                         -1
    x_47      Lambda                          1
    x_47      A41-47                         -1
    x_48      Lambda                          1
    x_48      A2-48                          -1
    x_49      Lambda                          1
    x_49      A7-49                          -1
    x_50      Lambda                          1
    x_50      A7-50                          -1
    MARK0001  'MARKER'                 'INTEND'
RHS
    rhs       Phi                             3
    rhs       Lambda                          1
    rhs       V2                              1
    rhs       V3                              1
    rhs       V4                              1
    rhs       V5                              1
    rhs       V7                              1
    rhs       V8                              1
    rhs       V9                              1
    rhs       V10                             1
    rhs       V11                             1
    rhs       V13                             1
    rhs       V14                             1
    rhs       V15                             1
    rhs       V16                             1
    rhs       V17                             1
    rhs       V18                             1
    rhs       V19                             1
    rhs       V20                             1
    rhs       V21                             1
    rhs       V22                             1
    rhs       V23                             1
    rhs       V24                             1
    rhs       V25                             1
    rhs       V26                             1
    rhs       V27                             1
    rhs       V28                             1
    rhs       V29                             1
    rhs       V30                             1
    rhs       V31                             1
    rhs       V32                             1
    rhs       V33                             1
    rhs       V34                             1
    rhs       V35                             1
    rhs       V36                             1
    rhs       V37                             1
    rhs       V38                             1
    rhs       V39                             1
    rhs       V40                             1
    rhs       V41                             1
    rhs       V42                             1
    rhs       V43                             1
    rhs       V44                             1
    rhs       V45                             1
    rhs       V46                             1
    rhs       V47                             1
    rhs       V48                             1
    rhs       V49                             1
    rhs       V50                             1
BOUNDS
 UP bnd       a_2                             1
 UP bnd       a_3                             1
 UP bnd       a_4                             1
 UP bnd       a_5                             1
 UP bnd       a_7                             1
 UP bnd       a_8                             1
 UP bnd       a_9                             1
 UP bnd       a_10                            1
 UP bnd       a_11                            1
 UP bnd       a_13                            1
 UP bnd       a_14                            1
 UP bnd       a_15                            1
 UP bnd       a_16                            1
 UP bnd       a_17                            1
 UP bnd       a_18                            1
 UP bnd       a_19                            1
 UP bnd       a_20                            1
 UP bnd       a_21                            1
 UP bnd       a_22                            1
 UP bnd       a_23                            1
 UP bnd       a_24                            1
 UP bnd       a_25                            1
 UP bnd       a_26                            1
 UP bnd       a_27                            1
 UP bnd       a_28                            1
 UP bnd       a_29                            1
 UP bnd       a_30                            1
 UP bnd       a_31                            1
 UP bnd       a_32                            1
 UP bnd       a_33                            1
 UP bnd       a_34                            1
 UP bnd       a_35                            1
 UP bnd       a_36                            1
 UP bnd       a_37                            1
 UP bnd       a_38                            1
 UP bnd       a_39                            1
 UP bnd       a_40                            1
 UP bnd       a_41                            1
 UP bnd       a_42                            1
 UP bnd       a_43                            1
 UP bnd       a_44                            1
 UP bnd       a_45                            1
 UP bnd       a_46                            1
 UP bnd       a_47                            1
 UP bnd       a_48                            1
 UP bnd       a_49                            1
 UP bnd       a_50                            1
 UP bnd       y_2                             1
 UP bnd       y_3                             1
 UP bnd       y_4                             1
 UP bnd       y_5                             1
 UP bnd       y_7                             1
 UP bnd       y_8                             1
 UP bnd       y_9                             1
 UP bnd       y_10                            1
 UP bnd       y_11                            1
 UP bnd       y_13                            1
 UP bnd       y_14                            1
 UP bnd       y_15                            1
 UP bnd       y_16                            1
 UP bnd       y_17                            1
 UP bnd       y_18                            1
 UP bnd       y_19                            1
 UP bnd       y_20                            1
 UP bnd       y_21                            1
 UP bnd       y_22                            1
 UP bnd       y_23                            1
 UP bnd       y_24                            1
 UP bnd       y_25                            1
 UP bnd       y_26                            1
 UP bnd       y_27                            1
 UP bnd       y_28                            1
 UP bnd       y_29                            1
 UP bnd       y_30                            1
 UP bnd       y_31                            1
 UP bnd       y_32                            1
 UP bnd       y_33                            1
 UP bnd       y_34                            1
 UP bnd       y_35                            1
 UP bnd       y_36                            1
 UP bnd       y_37                            1
 UP bnd       y_38                            1
 UP bnd       y_39                            1
 UP bnd       y_40                            1
 UP bnd       y_41                            1
 UP bnd       y_42                            1
 UP bnd       y_43                            1
 UP bnd       y_44                            1
 UP bnd       y_45                            1
 UP bnd       y_46                            1
 UP bnd       y_47                            1
 UP bnd       y_48                            1
 UP bnd       y_49                            1
 UP bnd       y_50                            1
 UP bnd       x_2                             1
 UP bnd       x_3                             1
 UP bnd       x_4                             1
 UP bnd       x_5                             1
 UP bnd       x_7                             1
 UP bnd       x_8                             1
 UP bnd       x_9                             1
 UP bnd       x_10                            1
 UP bnd       x_11                            1
 UP bnd       x_13                            1
 UP bnd       x_14                            1
 UP bnd       x_15                            1
 UP bnd       x_16                            1
 UP bnd       x_17                            1
 UP bnd       x_18                            1
 UP bnd       x_19                            1
 UP bnd       x_20                            1
 UP bnd       x_21                            1
 UP bnd       x_22                            1
 UP bnd       x_23                            1
 UP bnd       x_24                            1
 UP bnd       x_25                            1
 UP bnd       x_26                            1
 UP bnd       x_27                            1
 UP bnd       x_28                            1
 UP bnd       x_29                            1
 UP bnd       x_30                            1
 UP bnd       x_31                            1
 UP bnd       x_32                            1
 UP bnd       x_33                            1
 UP bnd       x_34                            1
 UP bnd       x_35                            1
 UP bnd       x_36                            1
 UP bnd       x_37                            1
 UP bnd       x_38                            1
 UP bnd       x_39                            1
 UP bnd       x_40                            1
 UP bnd       x_41                            1
 UP bnd       x_42                            1
 UP bnd       x_43                            1
 UP bnd       x_44                            1
 UP bnd       x_45                            1
 UP bnd       x_46                            1
 UP bnd       x_47                            1
 UP bnd       x_48                            1
 UP bnd       x_49                            1
 UP bnd       x_50                            1
ENDATA
